set VV := 0 1 2 3 4 5 6 7 8 9 10 11 12 13 14 15 16 17 18 19 20 21 22 23 24 25 26 27 28 29 30 31 32 33 34 35 36 ;
set VS := 0 1 2 3 4 5 6 7 8 9 10 11 12 13 14 15 16 17 18 19 20 21 22 23 24 25 26 27 28 29 30 31 32 33 34 35 36 37 38 39 40 41 42 43 44 45 46 47 48 49 50 51 52 53 54 55 56 57 58 59 60 61 62 63 64 65 66 67 68 69 70 71 72 73 74 75 76 77 ;
param cv := 
0 23
1 22
2 10
3 16
4 24
5 15
6 14
7 11
8 23
9 20
10 21
11 13
12 22
13 23
14 25
15 11
16 14
17 20
18 15
19 22
20 12
21 12
22 14
23 20
24 19
25 13
26 25
27 22
28 13
29 25
30 10
31 19
32 17
33 23
34 18
35 23
36 14
;
param cs := 
0 21
1 38
2 30
3 40
4 35
5 33
6 38
7 29
8 29
9 25
10 39
11 38
12 24
13 30
14 24
15 39
16 37
17 21
18 26
19 31
20 25
21 39
22 33
23 21
24 31
25 33
26 26
27 30
28 36
29 38
30 24
31 21
32 40
33 22
34 27
35 24
36 37
37 20
38 40
39 34
40 34
41 34
42 36
43 23
44 32
45 33
46 32
47 37
48 21
49 38
50 24
51 20
52 28
53 26
54 22
55 27
56 35
57 38
58 21
59 25
60 21
61 40
62 29
63 31
64 28
65 38
66 38
67 32
68 24
69 22
70 31
71 20
72 25
73 23
74 21
75 25
76 36
77 20
;
param bv:	 0 1 2 3 4 5 6 7 8 9 10 11 12 13 14 15 16 17 18 19 20 21 22 23 24 25 26 27 28 29 30 31 32 33 34 35 36 := 
		0 0 0 0 0 13 0 0 0 0 0 0 0 0 0 0 0 0 0 0 0 0 0 0 19 0 0 0 0 0 0 0 0 10 0 0 0 0 
		1 0 0 0 0 0 0 0 0 0 0 13 11 0 0 0 0 16 0 0 0 0 0 0 0 0 0 0 0 0 0 0 0 11 0 0 0 0 
		2 0 0 0 0 0 0 0 0 0 0 0 0 20 0 0 0 0 19 14 0 0 19 0 0 0 0 0 0 0 0 16 0 25 21 0 0 0 
		3 0 0 0 0 0 0 0 16 0 0 0 0 0 22 0 0 0 0 0 0 0 0 0 24 0 0 0 0 0 0 0 0 0 0 0 0 0 
		4 0 0 0 0 0 0 0 0 0 0 0 0 0 0 0 17 0 0 0 0 11 0 0 0 0 0 0 0 0 0 0 0 0 0 0 0 24 
		5 0 0 0 0 0 0 0 0 21 0 16 0 0 0 0 0 0 0 0 0 0 0 0 0 0 0 0 0 0 0 0 0 0 0 0 0 0 
		6 0 0 0 0 0 0 0 0 0 0 0 0 0 0 0 16 0 18 14 0 0 0 20 0 0 0 16 0 0 0 0 0 0 0 0 0 0 
		7 0 0 0 0 0 0 0 0 0 0 0 0 0 0 0 0 0 0 0 0 0 0 0 0 0 0 0 0 0 0 0 13 0 0 0 0 0 
		8 0 0 0 0 0 0 0 0 0 20 0 0 0 0 0 0 0 0 0 14 0 0 0 0 0 0 0 0 0 0 0 0 0 0 0 0 0 
		9 0 0 0 0 0 0 0 0 0 0 24 0 0 0 0 0 0 0 0 0 0 0 0 0 0 0 0 0 0 0 0 19 0 0 0 0 0 
		10 0 0 0 0 0 0 0 0 0 0 0 0 0 0 0 0 0 11 0 0 0 14 0 0 0 0 0 0 0 12 0 0 0 0 0 0 0 
		11 0 0 0 0 0 0 0 0 0 0 0 0 17 0 0 0 0 0 0 0 21 0 0 0 0 0 17 0 22 0 0 0 0 0 0 0 0 
		12 0 0 0 0 0 0 0 0 0 0 0 0 0 0 14 0 0 14 0 0 0 0 0 0 0 0 0 0 0 0 0 0 0 0 0 0 0 
		13 0 0 0 0 0 0 0 0 0 0 0 0 0 0 0 0 0 0 0 0 0 0 15 0 0 0 0 0 0 0 0 0 0 0 0 0 0 
		14 0 0 0 0 0 0 0 0 0 0 0 0 0 0 0 0 0 0 19 0 0 0 0 0 0 0 0 0 0 0 0 0 0 0 0 0 0 
		15 0 0 0 0 0 0 0 0 0 0 0 0 0 0 0 0 0 0 0 0 13 0 0 0 0 0 0 0 0 0 0 0 0 0 0 0 0 
		16 0 0 0 0 0 0 0 0 0 0 0 0 0 0 0 0 0 0 0 0 0 15 0 0 0 0 0 0 0 0 0 0 19 0 0 0 0 
		17 0 0 0 0 0 0 0 0 0 0 0 0 0 0 0 0 0 0 0 0 0 0 0 0 0 0 0 0 0 25 0 0 0 0 20 17 0 
		18 0 0 0 0 0 0 0 0 0 0 0 0 0 0 0 0 0 0 0 16 0 0 13 16 16 0 13 20 0 0 0 0 0 0 0 0 0 
		19 0 0 0 0 0 0 0 0 0 0 0 0 0 0 0 0 0 0 0 0 0 16 0 0 0 0 0 0 0 0 0 0 0 0 0 0 0 
		20 0 0 0 0 0 0 0 0 0 0 0 0 0 0 0 0 0 0 0 0 0 0 0 0 0 0 0 0 0 0 0 0 0 0 0 0 0 
		21 0 0 0 0 0 0 0 0 0 0 0 0 0 0 0 0 0 0 0 0 0 0 0 10 0 0 0 0 0 16 0 0 0 0 0 0 0 
		22 0 0 0 0 0 0 0 0 0 0 0 0 0 0 0 0 0 0 0 0 0 0 0 0 0 23 0 14 0 0 0 0 0 0 17 0 0 
		23 0 0 0 0 0 0 0 0 0 0 0 0 0 0 0 0 0 0 0 0 0 0 0 0 0 0 0 0 25 0 21 0 0 0 0 0 0 
		24 0 0 0 0 0 0 0 0 0 0 0 0 0 0 0 0 0 0 0 0 0 0 0 0 0 0 0 0 0 0 0 10 0 0 0 0 0 
		25 0 0 0 0 0 0 0 0 0 0 0 0 0 0 0 0 0 0 0 0 0 0 0 0 0 0 0 0 0 24 0 0 22 19 0 0 0 
		26 0 0 0 0 0 0 0 0 0 0 0 0 0 0 0 0 0 0 0 0 0 0 0 0 0 0 0 0 0 19 0 0 0 16 0 15 0 
		27 0 0 0 0 0 0 0 0 0 0 0 0 0 0 0 0 0 0 0 0 0 0 0 0 0 0 0 0 0 0 0 0 0 14 0 0 0 
		28 0 0 0 0 0 0 0 0 0 0 0 0 0 0 0 0 0 0 0 0 0 0 0 0 0 0 0 0 0 0 0 0 0 0 0 0 0 
		29 0 0 0 0 0 0 0 0 0 0 0 0 0 0 0 0 0 0 0 0 0 0 0 0 0 0 0 0 0 0 0 0 0 0 0 0 0 
		30 0 0 0 0 0 0 0 0 0 0 0 0 0 0 0 0 0 0 0 0 0 0 0 0 0 0 0 0 0 0 0 0 0 0 0 0 0 
		31 0 0 0 0 0 0 0 0 0 0 0 0 0 0 0 0 0 0 0 0 0 0 0 0 0 0 0 0 0 0 0 0 0 0 0 0 14 
		32 0 0 0 0 0 0 0 0 0 0 0 0 0 0 0 0 0 0 0 0 0 0 0 0 0 0 0 0 0 0 0 0 0 0 0 0 0 
		33 0 0 0 0 0 0 0 0 0 0 0 0 0 0 0 0 0 0 0 0 0 0 0 0 0 0 0 0 0 0 0 0 0 0 0 21 0 
		34 0 0 0 0 0 0 0 0 0 0 0 0 0 0 0 0 0 0 0 0 0 0 0 0 0 0 0 0 0 0 0 0 0 0 0 0 0 
		35 0 0 0 0 0 0 0 0 0 0 0 0 0 0 0 0 0 0 0 0 0 0 0 0 0 0 0 0 0 0 0 0 0 0 0 0 0 
		36 0 0 0 0 0 0 0 0 0 0 0 0 0 0 0 0 0 0 0 0 0 0 0 0 0 0 0 0 0 0 0 0 0 0 0 0 0 
;
param bs:	 0 1 2 3 4 5 6 7 8 9 10 11 12 13 14 15 16 17 18 19 20 21 22 23 24 25 26 27 28 29 30 31 32 33 34 35 36 37 38 39 40 41 42 43 44 45 46 47 48 49 50 51 52 53 54 55 56 57 58 59 60 61 62 63 64 65 66 67 68 69 70 71 72 73 74 75 76 77 := 
		0 0 0 0 0 0 0 0 0 0 0 0 0 0 0 0 39 0 0 0 0 0 0 33 0 0 0 0 0 0 22 0 0 0 0 0 0 0 0 0 0 0 0 0 0 37 0 0 0 0 0 0 0 0 0 0 0 0 0 0 0 35 0 0 0 0 0 0 0 39 0 0 0 0 0 0 0 0 0 
		1 0 0 0 0 0 0 0 0 0 32 0 0 0 21 0 0 0 0 0 0 0 0 0 0 0 0 0 0 0 36 0 0 0 0 0 0 0 22 0 32 0 0 30 0 0 0 37 0 0 0 0 0 0 0 0 0 0 0 0 0 0 0 0 0 0 0 0 0 0 0 0 0 0 0 0 0 0 0 
		2 0 0 0 22 0 0 0 0 0 0 0 21 0 0 0 0 0 0 0 0 0 0 24 0 0 0 0 0 0 0 40 0 0 0 0 0 0 0 0 0 33 0 0 0 0 0 0 30 0 0 0 0 0 0 0 0 0 0 0 0 0 0 0 31 29 0 0 0 25 0 0 0 0 0 0 28 0 0 
		3 0 0 22 0 0 0 0 0 0 0 0 0 0 0 0 0 0 0 0 0 23 0 0 0 0 0 0 40 0 24 0 0 0 30 0 0 0 36 0 0 0 0 22 0 0 0 0 0 0 0 0 0 0 0 0 0 0 0 0 0 0 0 0 0 0 0 0 0 0 0 0 0 0 0 0 0 0 0 
		4 0 0 0 0 0 0 0 0 39 0 0 0 0 0 0 0 35 0 0 38 0 0 0 37 0 0 0 0 0 0 0 0 0 0 0 0 0 0 0 0 40 0 0 0 0 0 28 0 0 0 35 0 0 0 0 0 0 0 0 0 0 0 0 0 0 0 0 0 0 0 0 0 0 0 0 0 0 0 
		5 0 0 0 0 0 0 0 21 0 0 0 37 0 0 0 35 0 0 0 0 0 0 0 0 0 0 0 0 0 0 0 0 0 0 0 38 0 23 0 0 0 0 0 0 0 0 36 0 0 34 0 0 0 0 0 0 27 0 0 0 0 0 0 0 0 0 0 0 0 0 0 0 0 0 0 0 40 0 
		6 0 0 0 0 0 0 0 0 0 0 0 0 0 0 28 0 0 0 0 0 0 0 0 0 0 0 0 0 0 0 0 0 30 0 0 0 22 0 0 0 0 0 0 0 0 31 0 0 0 0 0 0 22 0 0 0 0 0 0 0 0 0 0 0 0 0 0 0 0 0 0 0 0 0 0 0 0 23 
		7 0 0 0 0 0 21 0 0 0 0 28 0 0 32 26 0 0 0 0 0 0 25 0 0 0 0 0 0 21 0 37 0 0 0 0 0 37 25 0 22 38 0 0 0 0 0 0 0 0 0 0 0 0 0 0 0 0 0 0 0 0 0 0 0 0 0 0 0 0 0 0 0 0 0 25 0 0 0 
		8 0 0 0 0 39 0 0 0 0 33 35 0 0 0 0 0 0 0 0 0 0 0 0 0 0 0 0 21 0 0 0 0 0 0 0 0 0 0 0 0 0 0 0 0 0 0 0 0 0 39 0 0 0 0 0 0 0 0 0 0 0 22 0 0 0 0 0 0 0 27 0 0 28 0 0 0 0 0 
		9 0 32 0 0 0 0 0 0 33 0 0 0 0 0 0 0 0 0 0 0 0 0 0 0 0 0 0 0 0 0 0 0 0 0 0 0 0 0 0 0 0 40 0 0 0 0 0 0 0 0 0 0 0 0 0 30 0 0 0 0 0 0 0 0 0 0 0 0 0 0 0 0 0 0 0 0 0 0 
		10 0 0 0 0 0 0 0 28 35 0 0 0 0 0 0 0 0 0 0 0 0 0 0 0 0 0 31 0 0 0 0 0 0 0 0 0 0 0 0 0 0 0 0 0 29 0 0 0 0 0 0 0 0 0 0 0 0 0 0 0 0 0 0 0 0 0 0 0 0 0 34 0 31 0 0 0 0 0 
		11 0 0 21 0 0 37 0 0 0 0 0 0 0 0 0 0 0 0 0 0 0 0 23 0 0 0 0 0 40 0 0 0 0 0 0 0 0 0 0 0 0 0 0 0 0 0 0 40 0 0 27 37 26 0 0 0 0 0 0 37 32 0 0 0 0 0 0 0 23 0 0 0 0 0 0 0 0 0 
		12 0 0 0 0 0 0 0 0 0 0 0 0 0 0 0 0 23 0 0 0 0 20 0 0 0 0 0 0 0 0 0 0 0 0 20 37 0 0 0 0 26 0 0 0 0 0 0 0 0 0 0 0 0 0 0 0 0 0 0 0 30 0 0 0 0 0 0 0 27 0 0 0 0 0 0 0 0 25 
		13 0 21 0 0 0 0 0 32 0 0 0 0 0 0 0 0 0 0 0 0 0 0 21 0 0 0 0 0 34 0 35 0 0 0 0 0 36 21 0 0 23 0 0 0 0 0 0 0 0 0 0 0 0 0 27 0 0 0 0 0 0 27 0 0 0 0 0 0 0 39 0 0 0 0 0 0 0 0 
		14 0 0 0 0 0 0 28 26 0 0 0 0 0 0 0 0 0 0 0 0 0 22 0 0 0 0 0 0 0 0 26 0 0 0 0 0 0 0 0 0 0 0 0 0 0 0 0 0 0 0 0 0 0 0 0 31 33 30 0 0 0 0 0 0 0 0 0 0 0 0 0 0 0 0 35 0 0 0 
		15 39 0 0 0 0 35 0 0 0 0 0 0 0 0 0 0 0 0 0 0 0 0 0 0 0 21 0 0 0 0 34 0 0 0 0 0 0 0 0 0 0 0 0 0 0 0 0 0 0 23 0 0 0 21 0 0 0 0 0 0 30 0 0 0 0 0 0 0 0 0 0 0 0 0 27 0 24 0 
		16 0 0 0 0 35 0 0 0 0 0 0 0 23 0 0 0 0 0 0 0 25 0 0 0 0 0 0 0 28 0 0 0 0 0 0 0 0 0 0 0 32 0 0 0 0 27 0 0 0 0 0 0 0 0 0 0 0 0 0 0 0 0 0 0 0 0 0 0 0 0 0 0 0 0 24 27 0 0 
		17 0 0 0 0 0 0 0 0 0 0 0 0 0 0 0 0 0 0 0 0 0 0 0 0 0 0 0 0 0 0 0 0 0 0 0 30 0 0 0 38 0 0 0 0 0 0 0 0 32 0 0 0 0 0 0 0 0 0 0 0 0 0 0 0 0 0 0 0 0 0 0 0 0 0 0 0 26 0 
		18 0 0 0 0 0 0 0 0 0 0 0 0 0 0 0 0 0 0 0 0 0 0 0 0 0 0 0 0 26 0 0 0 38 0 0 0 0 0 0 0 0 0 0 0 0 0 0 0 0 0 0 0 0 0 0 0 0 0 0 0 0 0 0 0 0 0 0 0 0 0 0 0 0 0 0 0 0 0 
		19 0 0 0 0 38 0 0 0 0 0 0 0 0 0 0 0 0 0 0 0 0 30 0 0 0 0 0 0 0 0 0 0 0 0 0 0 0 0 0 0 0 0 0 0 0 0 0 0 0 0 0 0 36 0 0 34 0 0 0 0 0 36 0 0 0 0 34 0 0 0 0 0 0 0 0 0 0 0 
		20 0 0 0 23 0 0 0 0 0 0 0 0 0 0 0 0 25 0 0 0 0 0 0 0 0 0 40 28 0 0 0 0 0 39 0 0 0 0 0 0 0 0 24 0 0 0 0 0 0 0 33 0 0 0 0 0 0 0 0 0 0 0 0 33 0 0 0 0 0 0 0 0 0 0 23 0 0 0 
		21 0 0 0 0 0 0 0 25 0 0 0 0 20 0 22 0 0 0 0 30 0 0 20 0 0 0 0 0 0 0 0 0 0 0 0 0 0 34 0 0 0 0 0 0 0 37 31 0 0 0 0 0 0 0 0 0 0 0 0 0 0 0 0 0 34 0 0 0 0 0 0 0 0 0 22 0 0 0 
		22 33 0 24 0 0 0 0 0 0 0 0 23 0 21 0 0 0 0 0 0 0 20 0 0 32 0 0 0 0 0 25 0 0 0 0 36 0 0 0 0 0 0 0 0 0 0 0 0 0 0 0 0 0 0 0 0 0 0 0 0 0 0 0 0 0 0 0 0 28 0 0 0 22 0 0 0 40 20 
		23 0 0 0 0 37 0 0 0 0 0 0 0 0 0 0 0 0 0 0 0 0 0 0 0 0 0 0 0 0 24 0 0 0 0 0 0 0 0 0 38 0 0 0 0 0 0 0 0 0 31 0 0 0 0 0 33 0 0 0 0 0 0 0 0 29 0 0 0 0 0 0 0 29 0 0 28 0 0 
		24 0 0 0 0 0 0 0 0 0 0 0 0 0 0 0 0 0 0 0 0 0 0 32 0 0 25 0 0 0 0 0 0 0 0 0 0 0 0 29 0 0 0 0 0 0 0 0 0 0 0 0 0 0 0 0 0 28 0 0 0 0 0 0 0 0 0 0 0 0 0 0 0 0 0 0 0 0 0 
		25 0 0 0 0 0 0 0 0 0 0 0 0 0 0 0 21 0 0 0 0 0 0 0 0 25 0 0 0 0 0 0 0 0 0 0 0 0 0 0 0 0 0 40 0 0 0 0 30 0 0 0 35 0 34 0 0 0 0 0 0 0 0 0 0 0 0 0 0 0 0 0 0 0 40 0 0 0 0 
		26 0 0 0 0 0 0 0 0 0 0 31 0 0 0 0 0 0 0 0 0 40 0 0 0 0 0 0 0 0 0 0 0 0 38 0 0 0 0 0 0 0 0 0 0 0 0 0 0 33 30 0 0 0 0 0 0 0 0 0 0 0 0 0 0 0 0 0 24 0 0 0 0 33 0 0 0 0 0 
		27 0 0 0 40 0 0 0 0 21 0 0 0 0 0 0 0 0 0 0 0 28 0 0 0 0 0 0 0 0 0 0 0 0 0 0 0 0 0 35 0 0 0 0 0 0 0 0 0 34 0 40 0 0 0 0 0 0 0 0 0 0 0 37 0 0 0 0 0 35 0 0 0 25 0 0 0 0 0 
		28 0 0 0 0 0 0 0 21 0 0 0 40 0 34 0 0 28 0 26 0 0 0 0 0 0 0 0 0 0 0 0 0 38 33 0 0 0 0 0 0 0 0 0 0 0 0 0 24 0 0 0 0 0 0 0 33 0 0 0 0 0 0 0 0 0 0 26 0 21 0 0 0 0 0 0 0 0 0 
		29 22 36 0 24 0 0 0 0 0 0 0 0 0 0 0 0 0 0 0 0 0 0 0 24 0 0 0 0 0 0 0 0 0 34 0 0 0 0 0 0 0 0 0 0 0 0 36 0 0 0 0 0 0 0 0 0 24 0 0 0 0 0 0 0 0 0 0 0 0 0 0 0 0 0 0 0 0 0 
		30 0 0 40 0 0 0 0 37 0 0 0 0 0 35 26 34 0 0 0 0 0 0 25 0 0 0 0 0 0 0 0 27 0 0 32 0 0 0 0 0 0 38 0 0 0 0 0 0 0 0 0 0 0 0 0 0 21 0 0 0 0 0 0 0 0 28 0 21 0 0 0 0 0 0 0 23 0 0 
		31 0 0 0 0 0 0 0 0 0 0 0 0 0 0 0 0 0 0 0 0 0 0 0 0 0 0 0 0 0 0 27 0 0 0 0 0 0 0 0 0 0 0 0 0 0 0 0 0 0 0 0 37 0 0 0 0 0 0 0 0 0 0 0 0 0 0 0 0 0 0 0 0 0 0 0 0 0 0 
		32 0 0 0 0 0 0 30 0 0 0 0 0 0 0 0 0 0 0 38 0 0 0 0 0 0 0 0 0 38 0 0 0 0 0 0 0 31 0 0 0 0 0 0 0 0 0 0 0 0 0 0 26 0 0 0 34 0 0 0 0 0 0 0 0 0 0 0 0 20 0 0 0 0 0 0 0 0 0 
		33 0 0 0 30 0 0 0 0 0 0 0 0 0 0 0 0 0 0 0 0 39 0 0 0 0 0 38 0 33 34 0 0 0 0 0 0 0 0 0 0 0 34 0 0 0 0 0 40 0 0 0 0 0 0 37 38 0 0 0 0 0 0 0 0 0 0 0 0 0 0 0 0 30 0 0 0 0 0 
		34 0 0 0 0 0 0 0 0 0 0 0 0 20 0 0 0 0 0 0 0 0 0 0 0 0 0 0 0 0 0 32 0 0 0 0 0 0 0 0 0 0 0 0 0 0 39 0 0 0 0 0 0 0 0 0 0 0 0 0 36 0 0 37 0 0 37 0 36 0 0 21 0 0 0 0 0 0 24 
		35 0 0 0 0 0 38 0 0 0 0 0 0 37 0 0 0 0 30 0 0 0 0 36 0 0 0 0 0 0 0 0 0 0 0 0 0 0 27 0 40 0 0 0 0 0 0 0 0 0 0 0 0 0 0 0 27 0 0 0 0 0 0 0 0 0 22 0 0 26 0 0 0 0 0 0 0 0 0 
		36 0 0 0 0 0 0 22 37 0 0 0 0 0 36 0 0 0 0 0 0 0 0 0 0 0 0 0 0 0 0 0 0 31 0 0 0 0 0 0 0 0 0 0 0 0 31 0 0 0 0 0 0 0 26 0 0 28 0 0 38 0 0 0 0 0 0 0 0 0 0 0 0 0 0 25 0 0 36 
		37 0 22 0 36 0 23 0 25 0 0 0 0 0 21 0 0 0 0 0 0 0 34 0 0 0 0 0 0 0 0 0 0 0 0 0 27 0 0 0 0 32 0 0 0 0 0 22 0 27 0 0 0 0 33 0 0 0 0 0 0 33 0 0 0 0 0 0 28 0 0 0 0 40 0 0 0 0 0 
		38 0 0 0 0 0 0 0 0 0 0 0 0 0 0 0 0 0 0 0 0 0 0 0 0 29 0 0 35 0 0 0 0 0 0 0 0 0 0 0 0 0 0 0 0 0 0 0 40 0 0 0 0 0 0 29 0 0 0 0 0 0 0 0 24 0 0 0 0 0 0 0 0 0 0 0 0 32 0 
		39 0 32 0 0 0 0 0 22 0 0 0 0 0 0 0 0 0 38 0 0 0 0 0 38 0 0 0 0 0 0 0 0 0 0 0 40 0 0 0 0 0 0 0 0 0 40 0 0 0 26 0 0 0 26 0 30 0 0 0 0 0 0 0 35 30 0 0 0 0 0 0 0 0 0 0 0 32 0 
		40 0 0 33 0 40 0 0 38 0 0 0 0 26 23 0 0 32 0 0 0 0 0 0 0 0 0 0 0 0 0 0 0 0 0 0 0 0 32 0 0 0 0 0 0 0 0 35 0 0 0 0 0 0 22 0 36 0 0 0 35 0 0 0 0 0 0 0 0 0 0 0 0 0 0 0 0 0 0 
		41 0 0 0 0 0 0 0 0 0 40 0 0 0 0 0 0 0 0 0 0 0 0 0 0 0 0 0 0 0 0 38 0 0 34 0 0 0 0 0 0 0 0 0 33 0 0 0 0 0 0 0 0 0 0 0 0 0 0 0 40 0 0 0 0 0 0 0 0 0 0 0 0 0 0 0 0 0 0 
		42 0 30 0 22 0 0 0 0 0 0 0 0 0 0 0 0 0 0 0 0 24 0 0 0 0 40 0 0 0 0 0 0 0 0 0 0 0 0 0 0 0 0 0 38 0 0 0 0 29 0 0 0 0 0 0 0 0 0 0 0 0 27 0 0 0 0 23 30 0 0 0 35 0 30 0 0 0 0 
		43 0 0 0 0 0 0 0 0 0 0 0 0 0 0 0 0 0 0 0 0 0 0 0 0 0 0 0 0 0 0 0 0 0 0 0 0 0 0 0 0 0 33 38 0 0 0 0 32 35 0 0 0 0 0 0 28 0 0 37 0 40 0 0 0 0 0 0 0 0 0 0 0 0 0 0 0 0 0 
		44 37 0 0 0 0 0 0 0 0 0 29 0 0 0 0 0 0 0 0 0 0 0 0 0 0 0 0 0 0 0 0 0 0 0 0 0 0 0 0 0 0 0 0 0 0 0 0 0 0 0 0 0 0 0 0 0 0 0 0 0 0 0 0 0 0 0 32 0 25 0 0 0 0 0 0 0 0 32 
		45 0 0 0 0 0 0 31 0 0 0 0 0 0 0 0 0 27 0 0 0 0 37 0 0 0 0 0 0 0 0 0 0 0 0 39 0 31 0 0 40 0 0 0 0 0 0 0 0 0 0 0 0 0 0 0 0 0 0 0 0 0 0 0 27 0 0 0 0 0 0 0 31 0 0 0 33 23 0 
		46 0 37 0 0 28 36 0 0 0 0 0 0 0 0 0 0 0 0 0 0 0 31 0 0 0 0 0 0 0 36 0 0 0 0 0 0 0 22 0 0 35 0 0 0 0 0 0 0 27 0 0 0 0 0 0 0 0 0 0 0 0 0 0 0 0 0 0 0 0 0 0 0 0 0 0 0 0 0 
		47 0 0 30 0 0 0 0 0 0 0 0 40 0 0 0 0 0 0 0 0 0 0 0 0 0 30 0 0 24 0 0 0 0 40 0 0 0 0 40 0 0 0 0 32 0 0 0 0 0 0 0 0 0 0 0 20 0 23 0 0 0 28 0 0 26 0 0 0 0 21 0 0 0 0 0 0 0 0 
		48 0 0 0 0 0 0 0 0 0 0 0 0 0 0 0 0 0 32 0 0 0 0 0 0 0 0 33 34 0 0 0 0 0 0 0 0 0 27 0 0 0 0 29 35 0 0 27 0 0 0 0 0 0 0 0 0 37 0 0 0 0 0 0 0 0 0 0 0 0 0 0 0 0 0 0 0 0 0 
		49 0 0 0 0 0 34 0 0 39 0 0 0 0 0 0 23 0 0 0 0 0 0 0 31 0 0 30 0 0 0 0 0 0 0 0 0 0 0 0 26 0 0 0 0 0 0 0 0 0 0 0 0 0 0 0 0 0 0 0 0 0 0 0 32 0 0 0 0 0 0 0 0 0 0 33 0 0 0 
		50 0 0 0 0 35 0 0 0 0 0 0 27 0 0 0 0 0 0 0 0 33 0 0 0 0 0 0 40 0 0 0 0 0 0 0 0 0 0 0 0 0 0 0 0 0 0 0 0 0 0 0 0 0 0 0 0 0 0 0 0 0 28 0 0 0 0 0 0 0 20 0 0 0 0 0 0 38 0 
		51 0 0 0 0 0 0 0 0 0 0 0 37 0 0 0 0 0 0 0 0 0 0 0 0 0 35 0 0 0 0 0 37 26 0 0 0 0 0 0 0 0 0 0 0 0 0 0 0 0 0 0 0 0 0 0 0 0 0 0 0 0 0 0 0 0 0 0 0 0 0 0 0 0 0 0 0 0 0 
		52 0 0 0 0 0 0 22 0 0 0 0 26 0 0 0 0 0 0 0 36 0 0 0 0 0 0 0 0 0 0 0 0 0 0 0 0 0 0 0 0 0 0 0 0 0 0 0 0 0 0 0 0 0 0 0 0 34 0 0 0 0 0 0 0 0 0 0 0 27 0 0 0 0 0 0 0 0 0 
		53 0 0 0 0 0 0 0 0 0 0 0 0 0 0 0 21 0 0 0 0 0 0 0 0 0 34 0 0 0 0 0 0 0 0 0 0 26 33 0 26 22 0 0 0 0 0 0 0 0 0 0 0 0 0 39 0 0 0 27 0 0 0 0 20 0 32 0 0 0 0 0 0 0 0 0 35 0 30 
		54 0 0 0 0 0 0 0 0 0 0 0 0 0 27 0 0 0 0 0 0 0 0 0 0 0 0 0 0 0 0 0 0 0 37 0 0 0 0 29 0 0 0 0 0 0 0 0 0 0 0 0 0 0 39 0 0 32 0 0 0 0 0 0 0 39 0 0 0 0 0 0 0 26 0 0 38 0 0 
		55 0 0 0 0 0 0 0 0 0 30 0 0 0 0 31 0 0 0 0 34 0 0 0 33 0 0 0 0 33 0 0 0 34 38 0 27 0 0 0 30 36 0 0 28 0 0 0 20 0 0 0 0 0 0 0 0 0 0 0 0 0 0 0 0 0 0 0 0 0 0 0 0 0 0 0 0 0 40 
		56 0 0 0 0 0 27 0 0 0 0 0 0 0 0 33 0 0 0 0 0 0 0 0 0 28 0 0 0 0 24 21 0 0 0 0 0 28 0 0 0 0 0 0 0 0 0 0 0 37 0 0 0 34 0 32 0 0 0 0 0 0 24 33 0 0 0 0 0 0 0 0 0 0 0 21 0 0 0 
		57 0 0 0 0 0 0 0 0 0 0 0 0 0 0 30 0 0 0 0 0 0 0 0 0 0 0 0 0 0 0 0 0 0 0 0 0 0 0 0 0 0 0 0 0 0 0 0 23 0 0 0 0 0 0 0 0 0 0 0 0 0 0 0 0 0 0 0 0 0 0 0 0 0 0 0 0 0 0 
		58 0 0 0 0 0 0 0 0 0 0 0 0 0 0 0 0 0 0 0 0 0 0 0 0 0 0 0 0 0 0 0 0 0 0 0 0 0 0 0 0 0 0 0 37 0 0 0 0 0 0 0 0 0 27 0 0 0 0 0 0 0 0 0 0 37 0 0 0 0 0 0 0 0 0 38 0 29 0 
		59 0 0 0 0 0 0 0 0 0 0 0 37 0 0 0 0 0 0 0 0 0 0 0 0 0 0 0 0 0 0 0 0 0 0 36 0 38 0 0 0 35 40 0 0 0 0 0 0 0 0 0 0 0 0 0 0 0 0 0 0 0 0 0 0 0 0 0 0 0 0 0 0 0 0 0 0 29 0 
		60 35 0 0 0 0 0 0 0 0 0 0 32 30 0 0 30 0 0 0 0 0 0 0 0 0 0 0 0 0 0 0 0 0 0 0 0 0 33 0 0 0 0 0 40 0 0 0 0 0 0 0 0 0 0 0 0 0 0 0 0 0 0 0 0 0 0 0 0 0 0 0 0 0 0 0 0 39 0 
		61 0 0 0 0 0 0 0 0 22 0 0 0 0 27 0 0 0 0 0 36 0 0 0 0 0 0 0 0 0 0 0 0 0 0 0 0 0 0 0 0 0 0 27 0 0 0 0 28 0 0 28 0 0 0 0 0 24 0 0 0 0 0 0 23 0 0 0 0 0 0 0 34 0 0 0 0 0 0 
		62 0 0 0 0 0 0 0 0 0 0 0 0 0 0 0 0 0 0 0 0 0 0 0 0 0 0 0 37 0 0 0 0 0 0 37 0 0 0 0 0 0 0 0 0 0 0 0 0 0 0 0 0 0 0 0 0 33 0 0 0 0 0 0 0 0 0 0 29 0 0 0 0 0 0 0 0 0 0 
		63 0 0 31 0 0 0 0 0 0 0 0 0 0 0 0 0 0 0 0 0 33 0 0 0 0 0 0 0 0 0 0 0 0 0 0 0 0 0 24 35 0 0 0 0 0 27 0 0 0 32 0 0 0 20 0 0 0 0 0 0 0 23 0 0 0 0 0 0 0 0 0 0 0 0 0 0 0 0 
		64 0 0 29 0 0 0 0 0 0 0 0 0 0 0 0 0 0 0 0 0 0 34 0 29 0 0 0 0 0 0 0 0 0 0 0 0 0 0 0 30 0 0 0 0 0 0 0 26 0 0 0 0 0 0 39 0 0 0 37 0 0 0 0 0 0 0 0 0 0 0 0 0 0 0 0 0 0 0 
		65 0 0 0 0 0 0 0 0 0 0 0 0 0 0 0 0 0 0 0 0 0 0 0 0 0 0 0 0 0 0 28 0 0 0 37 22 0 0 0 0 0 0 0 0 0 0 0 0 0 0 0 0 0 32 0 0 0 0 0 0 0 0 0 0 0 0 0 0 36 0 0 0 0 0 0 0 0 0 
		66 0 0 0 0 0 0 0 0 0 0 0 0 0 0 0 0 0 0 0 34 0 0 0 0 0 0 0 0 26 0 0 0 0 0 0 0 0 0 0 0 0 0 23 0 32 0 0 0 0 0 0 0 0 0 0 0 0 0 0 0 0 0 0 0 0 0 0 29 0 0 0 0 0 35 0 0 0 0 
		67 0 0 0 0 0 0 0 0 0 0 0 0 0 0 0 0 0 0 0 0 0 0 0 0 0 0 24 0 0 0 21 0 0 0 36 0 0 28 0 0 0 0 30 0 0 0 0 0 0 0 0 0 0 0 0 0 0 0 0 0 0 0 29 0 0 0 29 0 0 28 0 0 25 0 0 0 0 0 
		68 39 0 25 0 0 0 0 0 0 0 0 23 27 0 0 0 0 0 0 0 0 0 28 0 0 0 0 35 21 0 0 0 20 0 0 26 0 0 0 0 0 0 0 0 25 0 0 0 0 0 0 0 27 0 0 0 0 0 0 0 0 0 0 0 0 36 0 0 0 0 0 0 0 0 0 0 23 0 
		69 0 0 0 0 0 0 0 0 27 0 0 0 0 39 0 0 0 0 0 0 0 0 0 0 0 0 0 0 0 0 0 0 0 0 0 0 0 0 0 0 0 0 0 0 0 0 0 21 0 0 20 0 0 0 0 0 0 0 0 0 0 0 0 0 0 0 0 28 0 0 0 22 0 0 0 0 0 0 
		70 0 0 0 0 0 0 0 0 0 0 34 0 0 0 0 0 0 0 0 0 0 0 0 0 0 0 0 0 0 0 0 0 0 0 21 0 0 0 0 0 0 0 0 0 0 0 0 0 0 0 0 0 0 0 0 0 0 0 0 0 0 0 0 0 0 0 0 0 0 0 0 36 0 0 0 0 0 0 
		71 0 0 0 0 0 0 0 0 0 0 0 0 0 0 0 0 0 0 0 0 0 0 0 0 0 0 0 0 0 0 0 0 0 0 0 0 0 0 0 0 0 0 35 0 0 31 0 0 0 0 0 0 0 0 0 0 0 0 0 0 0 34 0 0 0 0 0 0 0 22 36 0 26 0 0 0 0 0 
		72 0 0 0 0 0 0 0 0 28 0 31 0 0 0 0 0 0 0 0 0 0 0 22 29 0 0 33 25 0 0 0 0 0 30 0 0 0 40 0 0 0 0 0 0 0 0 0 0 0 0 0 0 0 0 26 0 0 0 0 0 0 0 0 0 0 0 0 25 0 0 0 26 0 0 0 0 0 0 
		73 0 0 0 0 0 0 0 0 0 0 0 0 0 0 0 0 0 0 0 0 0 0 0 0 0 40 0 0 0 0 0 0 0 0 0 0 0 0 0 0 0 0 30 0 0 0 0 0 0 0 0 0 0 0 0 0 0 0 0 0 0 0 0 0 0 0 35 0 0 0 0 0 0 0 0 0 0 0 
		74 0 0 0 0 0 0 0 25 0 0 0 0 0 0 35 27 24 0 0 0 23 22 0 0 0 0 0 0 0 0 0 0 0 0 0 0 25 0 0 0 0 0 0 0 0 0 0 0 0 33 0 0 0 0 0 0 21 0 38 0 0 0 0 0 0 0 0 0 0 0 0 0 0 0 0 0 20 0 
		75 0 0 28 0 0 0 0 0 0 0 0 0 0 0 0 0 27 0 0 0 0 0 0 28 0 0 0 0 0 0 23 0 0 0 0 0 0 0 0 0 0 0 0 0 0 33 0 0 0 0 0 0 0 35 38 0 0 0 0 0 0 0 0 0 0 0 0 0 0 0 0 0 0 0 0 0 0 0 
		76 0 0 0 0 0 40 0 0 0 0 0 0 0 0 0 24 0 26 0 0 0 0 40 0 0 0 0 0 0 0 0 0 0 0 0 0 0 0 32 32 0 0 0 0 0 23 0 0 0 0 38 0 0 0 0 0 0 0 29 29 39 0 0 0 0 0 0 0 23 0 0 0 0 0 20 0 0 0 
		77 0 0 0 0 0 0 23 0 0 0 0 0 25 0 0 0 0 0 0 0 0 0 20 0 0 0 0 0 0 0 0 0 0 0 24 0 36 0 0 0 0 0 0 0 32 0 0 0 0 0 0 0 0 30 0 40 0 0 0 0 0 0 0 0 0 0 0 0 0 0 0 0 0 0 0 0 0 0 
;
